branch-and-cut/resultados/I080/i080-105.sol
2203
8
1 2
3 7
3 16
2 3
3 6
2 5
16 4
7 8
